s SATISFIABLE
a x_0	129
a x_1	105
a x_2	200
a x_3	4
a x_4	135
a x_5	32
a x_6	61
a x_7	67
a x_8	227
a x_9	235
a x_10	10
a x_11	188
a x_12	164
a x_13	206
a x_14	162
a x_15	18
a x_16	19
a x_17	51
a x_18	9
a x_19	231
a x_20	76
a x_21	226
a x_22	112
a x_23	121
a x_24	5
a x_25	142
a x_26	100
a x_27	154
a x_28	50
a x_29	152
a x_30	62
a x_31	250
a x_32	7
a x_33	87
a x_34	143
a x_35	174
a x_36	225
a x_37	12
a x_38	182
a x_39	159
a x_40	148
a x_41	88
a x_42	70
a x_43	220
a x_44	47
a x_45	224
a x_46	63
a x_47	195
a x_48	192
a x_49	106
a x_50	254
a x_51	167
a x_52	75
a x_53	113
a x_54	111
a x_55	84
a x_56	256
a x_57	29
a x_58	104
a x_59	157
a x_60	175
a x_61	59
a x_62	236
a x_63	230
a x_64	232
a x_65	120
a x_66	116
a x_67	13
a x_68	176
a x_69	242
a x_70	36
a x_71	86
a x_72	166
a x_73	178
a x_74	1
a x_75	40
a x_76	139
a x_77	79
a x_78	184
a x_79	246
a x_80	202
a x_81	26
a x_82	115
a x_83	241
a x_84	45
a x_85	248
a x_86	30
a x_87	90
a x_88	205
a x_89	108
a x_90	247
a x_91	101
a x_92	251
a x_93	123
a x_94	54
a x_95	131
a x_96	46
a x_97	221
a x_98	56
a x_99	199
a x_100	183
a x_101	52
a x_102	144
a x_103	194
a x_104	245
a x_105	239
a x_106	110
a x_107	207
a x_108	133
a x_109	44
a x_110	177
a x_111	85
a x_112	66
a x_113	210
a x_114	78
a x_115	11
a x_116	71
a x_117	95
a x_118	119
a x_119	15
a x_120	124
a x_121	140
a x_122	99
a x_123	69
a x_124	98
a x_125	172
a x_126	229
a x_127	180
a x_128	31
a x_129	181
a x_130	43
a x_131	243
a x_132	74
a x_133	141
a x_134	190
a x_135	77
a x_136	130
a x_137	149
a x_138	39
a x_139	150
a x_140	217
a x_141	198
a x_142	215
a x_143	208
a x_144	81
a x_145	114
a x_146	191
a x_147	219
a x_148	65
a x_149	136
a x_150	125
a x_151	28
a x_152	93
a x_153	240
a x_154	8
a x_155	55
a x_156	34
a x_157	117
a x_158	94
a x_159	128
a x_160	73
a x_161	20
a x_162	22
a x_163	122
a x_164	173
a x_165	193
a x_166	228
a x_167	218
a x_168	203
a x_169	107
a x_170	21
a x_171	146
a x_172	204
a x_173	145
a x_174	49
a x_175	92
a x_176	170
a x_177	16
a x_178	213
a x_179	25
a x_180	97
a x_181	134
a x_182	156
a x_183	24
a x_184	212
a x_185	179
a x_186	160
a x_187	27
a x_188	253
a x_189	163
a x_190	185
a x_191	48
a x_192	109
a x_193	211
a x_194	189
a x_195	223
a x_196	82
a x_197	153
a x_198	33
a x_199	147
a x_200	103
a x_201	237
a x_202	138
a x_203	234
a x_204	137
a x_205	132
a x_206	14
a x_207	196
a x_208	42
a x_209	17
a x_210	214
a x_211	57
a x_212	201
a x_213	222
a x_214	126
a x_215	209
a x_216	83
a x_217	127
a x_218	158
a x_219	155
a x_220	244
a x_221	35
a x_222	2
a x_223	72
a x_224	233
a x_225	60
a x_226	168
a x_227	197
a x_228	249
a x_229	187
a x_230	89
a x_231	118
a x_232	96
a x_233	186
a x_234	38
a x_235	165
a x_236	58
a x_237	6
a x_238	64
a x_239	23
a x_240	161
a x_241	238
a x_242	68
a x_243	3
a x_244	252
a x_245	41
a x_246	80
a x_247	216
a x_248	102
a x_249	91
a x_250	171
a x_251	53
a x_252	151
a x_253	169
a x_254	37
a x_255	255
a
[Finished in 559.3s]